(set-logic QF_NRA)
; benchmark generated from python API
(set-info :status unknown)
(declare-fun v1y () Real)
(declare-fun oy () Real)
(declare-fun v1x () Real)
(declare-fun R2 () Real)
(declare-fun y1y () Real)
(declare-fun xy () Real)
(declare-fun y1x () Real)
(declare-fun xx () Real)
(declare-fun rho2 () Real)
(declare-fun a1y () Real)
(declare-fun a1x () Real)
(declare-fun b1y () Real)
(declare-fun b1x () Real)
(declare-fun b2y () Real)
(declare-fun b2x () Real)
(assert
 (let ((?x34 (* (- 1.0) v1x)))
 (let ((?x338 (* (- 1.0) R2)))
 (let ((?x354 (+ (+ (+ (+ (/ 1.0 4.0) (* oy oy)) (* v1x v1x)) (* v1y v1y)) ?x338)))
 (= (+ (+ ?x354 ?x34) (* (* (- 2.0) oy) v1y)) 0.0)))))
(assert
 (= (+ (+ (/ 1.0 4.0) (* oy oy)) (* (- 1.0) R2)) 0.0))
(assert
 (let ((?x263 (* (- 1.0) rho2)))
 (let ((?x379 (* y1y y1y)))
 (let ((?x199 (+ (+ (+ (+ (* xx xx) (* xy xy)) (* y1x y1x)) ?x379) ?x263)))
 (= (+ (+ ?x199 (* (* (- 2.0) xx) y1x)) (* (* (- 2.0) xy) y1y)) 0.0)))))
(assert
 (let ((?x263 (* (- 1.0) rho2)))
 (let ((?x283 (* xy xy)))
 (let ((?x61 (+ (+ (+ (+ (* a1x a1x) (* a1y a1y)) (* xx xx)) ?x283) ?x263)))
 (= (+ (+ ?x61 (* (* (- 2.0) a1x) xx)) (* (* (- 2.0) a1y) xy)) 0.0)))))
(assert
 (let ((?x263 (* (- 1.0) rho2)))
 (let ((?x283 (* xy xy)))
 (let ((?x10 (+ (+ (+ (+ (* b1x b1x) (* b1y b1y)) (* xx xx)) ?x283) ?x263)))
 (= (+ (+ ?x10 (* (* (- 2.0) b1x) xx)) (* (* (- 2.0) b1y) xy)) 0.0)))))
(assert
 (let ((?x263 (* (- 1.0) rho2)))
 (let ((?x283 (* xy xy)))
 (let ((?x86 (+ (+ (+ (+ (* b2x b2x) (* b2y b2y)) (* xx xx)) ?x283) ?x263)))
 (= (+ (+ ?x86 (* (* (- 2.0) b2x) xx)) (* (* (- 2.0) b2y) xy)) 0.0)))))
(assert
 (let ((?x49 (+ (+ (+ (+ (- (/ 1.0 4.0)) R2) xx) (* (- 1.0) (* oy oy))) (* (- 1.0) (* xx xx)))))
 (>= (+ (+ ?x49 (* (- 1.0) (* xy xy))) (* (* 2.0 oy) xy)) 0.0)))
(assert
 (let ((?x27 (+ (+ (+ (+ (- (/ 1.0 4.0)) R2) y1x) (* (- 1.0) (* oy oy))) (* (- 1.0) (* y1x y1x)))))
 (>= (+ (+ ?x27 (* (- 1.0) (* y1y y1y))) (* (* 2.0 oy) y1y)) 0.0)))
(assert
 (let ((?x701 (* oy oy)))
 (let ((?x315 (* (- 1.0) ?x701)))
 (let ((?x337 (+ (+ (+ (+ (- (/ 1.0 4.0)) R2) a1x) (* (- 1.0) (* a1x a1x))) (* (- 1.0) (* a1y a1y)))))
 (>= (+ (+ ?x337 ?x315) (* (* 2.0 a1y) oy)) 0.0)))))
(assert
 (let ((?x701 (* oy oy)))
 (let ((?x315 (* (- 1.0) ?x701)))
 (let ((?x106 (+ (+ (+ (+ (- (/ 1.0 4.0)) R2) b1x) (* (- 1.0) (* b1x b1x))) (* (- 1.0) (* b1y b1y)))))
 (>= (+ (+ ?x106 ?x315) (* (* 2.0 b1y) oy)) 0.0)))))
(assert
 (let ((?x701 (* oy oy)))
 (let ((?x315 (* (- 1.0) ?x701)))
 (let ((?x112 (+ (+ (+ (+ (- (/ 1.0 4.0)) R2) b2x) (* (- 1.0) (* b2x b2x))) (* (- 1.0) (* b2y b2y)))))
 (>= (+ (+ ?x112 ?x315) (* (* 2.0 b2y) oy)) 0.0)))))
(assert
 (>= (+ (+ (* v1x v1x) (* v1y v1y)) (* (- 1.0) v1x)) 0.0))
(assert
 (>= v1x 0.0))
(assert
 (>= (+ 1.0 (* (- 1.0) v1x)) 0.0))
(assert
 (> R2 0.0))
(assert
 (> rho2 0.0))
(assert
 (let ((?x67 (* (- 1.0) v1y)))
 (let ((?x116 (* ?x67 xy)))
 (> ?x116 0.0))))
(assert
 (let ((?x126 (+ (+ (* v1y v1y) (* (* (- 1.0) v1y) xy)) (* (* (- 1.0) xx) (* v1y v1y)))))
 (> (+ ?x126 (* (* v1x v1y) xy)) 0.0)))
(assert
 (> (+ (* xx (* v1y v1y)) (* (* (* (- 1.0) v1x) v1y) xy)) 0.0))
(assert
 (let ((?x67 (* (- 1.0) v1y)))
 (let ((?x119 (* ?x67 y1y)))
 (> ?x119 0.0))))
(assert
 (let ((?x137 (+ (+ (* v1y v1y) (* (* (- 1.0) v1y) y1y)) (* (* (- 1.0) y1x) (* v1y v1y)))))
 (> (+ ?x137 (* (* v1x v1y) y1y)) 0.0)))
(assert
 (> (+ (* y1x (* v1y v1y)) (* (* (* (- 1.0) v1x) v1y) y1y)) 0.0))
(assert
 (let ((?x23 (* a1y v1y)))
 (> ?x23 0.0)))
(assert
 (let ((?x168 (* (- 1.0) a1y)))
 (let ((?x292 (* ?x168 v1x)))
 (let ((?x291 (* ?x292 v1y)))
 (let ((?x23 (* a1y v1y)))
 (let ((?x141 (+ (+ (+ (* (- 1.0) (* v1y v1y)) (* a1x (* v1y v1y))) ?x23) ?x291)))
 (> ?x141 0.0)))))))
(assert
 (> (+ (* a1x (* v1y v1y)) (* (* (* (- 1.0) a1y) v1x) v1y)) 0.0))
(assert
 (> (* b1y v1y) 0.0))
(assert
 (let ((?x69 (* b1y v1x)))
 (let ((?x148 (* ?x69 v1y)))
 (let ((?x22 (+ (+ (* v1y v1y) (* (* (- 1.0) b1x) (* v1y v1y))) (* (* (- 1.0) b1y) v1y))))
 (> (+ ?x22 ?x148) 0.0)))))
(assert
 (> (+ (* (* (- 1.0) b1x) (* v1y v1y)) (* (* b1y v1x) v1y)) 0.0))
(assert
 (> (* b2y v1y) 0.0))
(assert
 (let ((?x204 (* b2y v1x)))
 (let ((?x328 (* ?x204 v1y)))
 (let ((?x490 (+ (+ (* v1y v1y) (* (* (- 1.0) b2x) (* v1y v1y))) (* (* (- 1.0) b2y) v1y))))
 (> (+ ?x490 ?x328) 0.0)))))
(assert
 (> (+ (* (* (- 1.0) b2x) (* v1y v1y)) (* (* b2y v1x) v1y)) 0.0))
(assert
 (> (+ (* xx y1y) (* (* (- 1.0) xy) y1x)) 0.0))
(assert
 (let ((?x155 (* (- 1.0) xy)))
 (> ?x155 0.0)))
(assert
 (> (+ (* a1y xx) (* (* (- 1.0) a1x) xy)) 0.0))
(assert
 (> (+ (* v1y xx) (* (* (- 1.0) v1x) xy)) 0.0))
(assert
 (> (+ (* b1y xx) (* (* (- 1.0) b1x) xy)) 0.0))
(assert
 (> (+ (* b2y xx) (* (* (- 1.0) b2x) xy)) 0.0))
(assert
 (let ((?x161 (* (- 1.0) y1y)))
 (> ?x161 0.0)))
(assert
 (> (+ (* a1y y1x) (* (* (- 1.0) a1x) y1y)) 0.0))
(assert
 (> (+ (* v1y y1x) (* (* (- 1.0) v1x) y1y)) 0.0))
(assert
 (> (+ (* b1y y1x) (* (* (- 1.0) b1x) y1y)) 0.0))
(assert
 (> (+ (* b2y y1x) (* (* (- 1.0) b2x) y1y)) 0.0))
(assert
 (> a1y 0.0))
(assert
 (> v1y 0.0))
(assert
 (> b1y 0.0))
(assert
 (> b2y 0.0))
(assert
 (> (+ (* a1x v1y) (* (* (- 1.0) a1y) v1x)) 0.0))
(assert
 (> (+ (* a1x b1y) (* (* (- 1.0) a1y) b1x)) 0.0))
(assert
 (> (+ (* a1x b2y) (* (* (- 1.0) a1y) b2x)) 0.0))
(assert
 (> (+ (* b1y v1x) (* (* (- 1.0) b1x) v1y)) 0.0))
(assert
 (> (+ (* b2y v1x) (* (* (- 1.0) b2x) v1y)) 0.0))
(assert
 (> (+ (* b1x b2y) (* (* (- 1.0) b1y) b2x)) 0.0))
(assert
 (let ((?x155 (* (- 1.0) xy)))
 (let ((?x195 (* ?x155 y1x)))
 (> (+ (+ (+ xy (* (- 1.0) y1y)) (* xx y1y)) ?x195) 0.0))))
(assert
 (let ((?x155 (* (- 1.0) xy)))
 (let ((?x195 (* ?x155 y1x)))
 (let ((?x168 (* (- 1.0) a1y)))
 (let ((?x348 (* ?x168 xx)))
 (let ((?x307 (* (- 1.0) a1x)))
 (let ((?x176 (* ?x307 y1y)))
 (let ((?x358 (+ (+ (+ (+ (* a1x xy) (* a1y y1x)) (* xx y1y)) ?x176) ?x348)))
 (> (+ ?x358 ?x195) 0.0)))))))))
(assert
 (let ((?x155 (* (- 1.0) xy)))
 (let ((?x195 (* ?x155 y1x)))
 (let ((?x67 (* (- 1.0) v1y)))
 (let ((?x311 (* ?x67 xx)))
 (let ((?x34 (* (- 1.0) v1x)))
 (let ((?x194 (* ?x34 y1y)))
 (let ((?x26 (+ (+ (+ (+ (* v1x xy) (* v1y y1x)) (* xx y1y)) ?x194) ?x311)))
 (> (+ ?x26 ?x195) 0.0)))))))))
(assert
 (let ((?x155 (* (- 1.0) xy)))
 (let ((?x195 (* ?x155 y1x)))
 (let ((?x216 (* (- 1.0) b1y)))
 (let ((?x366 (* ?x216 xx)))
 (let ((?x146 (* (- 1.0) b1x)))
 (let ((?x170 (* ?x146 y1y)))
 (let ((?x318 (+ (+ (+ (+ (* b1x xy) (* b1y y1x)) (* xx y1y)) ?x170) ?x366)))
 (> (+ ?x318 ?x195) 0.0)))))))))
(assert
 (let ((?x155 (* (- 1.0) xy)))
 (let ((?x195 (* ?x155 y1x)))
 (let ((?x140 (* (- 1.0) b2y)))
 (let ((?x332 (* ?x140 xx)))
 (let ((?x248 (* (- 1.0) b2x)))
 (let ((?x210 (* ?x248 y1y)))
 (let ((?x378 (+ (+ (+ (+ (* b2x xy) (* b2y y1x)) (* xx y1y)) ?x210) ?x332)))
 (> (+ ?x378 ?x195) 0.0)))))))))
(assert
 (let ((?x168 (* (- 1.0) a1y)))
 (let ((?x348 (* ?x168 xx)))
 (> (+ (+ (+ a1y (* (- 1.0) xy)) (* a1x xy)) ?x348) 0.0))))
(assert
 (let ((?x67 (* (- 1.0) v1y)))
 (let ((?x311 (* ?x67 xx)))
 (> (+ (+ (+ v1y (* (- 1.0) xy)) (* v1x xy)) ?x311) 0.0))))
(assert
 (let ((?x216 (* (- 1.0) b1y)))
 (let ((?x366 (* ?x216 xx)))
 (> (+ (+ (+ b1y (* (- 1.0) xy)) (* b1x xy)) ?x366) 0.0))))
(assert
 (let ((?x140 (* (- 1.0) b2y)))
 (let ((?x332 (* ?x140 xx)))
 (> (+ (+ (+ b2y (* (- 1.0) xy)) (* b2x xy)) ?x332) 0.0))))
(assert
 (let ((?x67 (* (- 1.0) v1y)))
 (let ((?x311 (* ?x67 xx)))
 (let ((?x168 (* (- 1.0) a1y)))
 (let ((?x292 (* ?x168 v1x)))
 (let ((?x307 (* (- 1.0) a1x)))
 (let ((?x163 (* ?x307 xy)))
 (let ((?x487 (+ (+ (+ (+ (* a1x v1y) (* a1y xx)) (* v1x xy)) ?x163) ?x292)))
 (> (+ ?x487 ?x311) 0.0)))))))))
(assert
 (let ((?x216 (* (- 1.0) b1y)))
 (let ((?x366 (* ?x216 xx)))
 (let ((?x168 (* (- 1.0) a1y)))
 (let ((?x252 (* ?x168 b1x)))
 (let ((?x307 (* (- 1.0) a1x)))
 (let ((?x163 (* ?x307 xy)))
 (let ((?x443 (+ (+ (+ (+ (* a1x b1y) (* a1y xx)) (* b1x xy)) ?x163) ?x252)))
 (> (+ ?x443 ?x366) 0.0)))))))))
(assert
 (let ((?x140 (* (- 1.0) b2y)))
 (let ((?x332 (* ?x140 xx)))
 (let ((?x168 (* (- 1.0) a1y)))
 (let ((?x284 (* ?x168 b2x)))
 (let ((?x307 (* (- 1.0) a1x)))
 (let ((?x163 (* ?x307 xy)))
 (let ((?x133 (+ (+ (+ (+ (* a1x b2y) (* a1y xx)) (* b2x xy)) ?x163) ?x284)))
 (> (+ ?x133 ?x332) 0.0)))))))))
(assert
 (let ((?x34 (* (- 1.0) v1x)))
 (let ((?x160 (* ?x34 xy)))
 (let ((?x216 (* (- 1.0) b1y)))
 (let ((?x366 (* ?x216 xx)))
 (let ((?x146 (* (- 1.0) b1x)))
 (let ((?x302 (* ?x146 v1y)))
 (let ((?x413 (+ (+ (+ (+ (* b1x xy) (* b1y v1x)) (* v1y xx)) ?x302) ?x366)))
 (> (+ ?x413 ?x160) 0.0)))))))))
(assert
 (let ((?x34 (* (- 1.0) v1x)))
 (let ((?x160 (* ?x34 xy)))
 (let ((?x140 (* (- 1.0) b2y)))
 (let ((?x332 (* ?x140 xx)))
 (let ((?x248 (* (- 1.0) b2x)))
 (let ((?x313 (* ?x248 v1y)))
 (let ((?x477 (+ (+ (+ (+ (* b2x xy) (* b2y v1x)) (* v1y xx)) ?x313) ?x332)))
 (> (+ ?x477 ?x160) 0.0)))))))))
(assert
 (let ((?x140 (* (- 1.0) b2y)))
 (let ((?x332 (* ?x140 xx)))
 (let ((?x216 (* (- 1.0) b1y)))
 (let ((?x300 (* ?x216 b2x)))
 (let ((?x146 (* (- 1.0) b1x)))
 (let ((?x166 (* ?x146 xy)))
 (let ((?x169 (+ (+ (+ (+ (* b1x b2y) (* b1y xx)) (* b2x xy)) ?x166) ?x300)))
 (> (+ ?x169 ?x332) 0.0)))))))))
(assert
 (let ((?x411 (+ (+ (+ a1y (* (- 1.0) y1y)) (* a1x y1y)) (* (* (- 1.0) a1y) y1x))))
 (> ?x411 0.0)))
(assert
 (let ((?x67 (* (- 1.0) v1y)))
 (let ((?x428 (* ?x67 y1x)))
 (> (+ (+ (+ v1y (* (- 1.0) y1y)) (* v1x y1y)) ?x428) 0.0))))
(assert
 (let ((?x216 (* (- 1.0) b1y)))
 (let ((?x416 (* ?x216 y1x)))
 (> (+ (+ (+ b1y (* (- 1.0) y1y)) (* b1x y1y)) ?x416) 0.0))))
(assert
 (let ((?x140 (* (- 1.0) b2y)))
 (let ((?x430 (* ?x140 y1x)))
 (> (+ (+ (+ b2y (* (- 1.0) y1y)) (* b2x y1y)) ?x430) 0.0))))
(assert
 (let ((?x67 (* (- 1.0) v1y)))
 (let ((?x428 (* ?x67 y1x)))
 (let ((?x168 (* (- 1.0) a1y)))
 (let ((?x292 (* ?x168 v1x)))
 (let ((?x307 (* (- 1.0) a1x)))
 (let ((?x176 (* ?x307 y1y)))
 (let ((?x179 (+ (+ (+ (+ (* a1x v1y) (* a1y y1x)) (* v1x y1y)) ?x176) ?x292)))
 (> (+ ?x179 ?x428) 0.0)))))))))
(assert
 (let ((?x216 (* (- 1.0) b1y)))
 (let ((?x416 (* ?x216 y1x)))
 (let ((?x168 (* (- 1.0) a1y)))
 (let ((?x252 (* ?x168 b1x)))
 (let ((?x307 (* (- 1.0) a1x)))
 (let ((?x176 (* ?x307 y1y)))
 (let ((?x226 (+ (+ (+ (+ (* a1x b1y) (* a1y y1x)) (* b1x y1y)) ?x176) ?x252)))
 (> (+ ?x226 ?x416) 0.0)))))))))
(assert
 (let ((?x140 (* (- 1.0) b2y)))
 (let ((?x430 (* ?x140 y1x)))
 (let ((?x168 (* (- 1.0) a1y)))
 (let ((?x284 (* ?x168 b2x)))
 (let ((?x307 (* (- 1.0) a1x)))
 (let ((?x176 (* ?x307 y1y)))
 (let ((?x476 (+ (+ (+ (+ (* a1x b2y) (* a1y y1x)) (* b2x y1y)) ?x176) ?x284)))
 (> (+ ?x476 ?x430) 0.0)))))))))
(assert
 (let ((?x34 (* (- 1.0) v1x)))
 (let ((?x194 (* ?x34 y1y)))
 (let ((?x216 (* (- 1.0) b1y)))
 (let ((?x416 (* ?x216 y1x)))
 (let ((?x146 (* (- 1.0) b1x)))
 (let ((?x302 (* ?x146 v1y)))
 (let ((?x424 (+ (+ (+ (+ (* b1x y1y) (* b1y v1x)) (* v1y y1x)) ?x302) ?x416)))
 (> (+ ?x424 ?x194) 0.0)))))))))
(assert
 (let ((?x34 (* (- 1.0) v1x)))
 (let ((?x194 (* ?x34 y1y)))
 (let ((?x140 (* (- 1.0) b2y)))
 (let ((?x430 (* ?x140 y1x)))
 (let ((?x248 (* (- 1.0) b2x)))
 (let ((?x313 (* ?x248 v1y)))
 (let ((?x167 (+ (+ (+ (+ (* b2x y1y) (* b2y v1x)) (* v1y y1x)) ?x313) ?x430)))
 (> (+ ?x167 ?x194) 0.0)))))))))
(assert
 (let ((?x140 (* (- 1.0) b2y)))
 (let ((?x430 (* ?x140 y1x)))
 (let ((?x216 (* (- 1.0) b1y)))
 (let ((?x300 (* ?x216 b2x)))
 (let ((?x146 (* (- 1.0) b1x)))
 (let ((?x170 (* ?x146 y1y)))
 (let ((?x432 (+ (+ (+ (+ (* b1x b2y) (* b1y y1x)) (* b2x y1y)) ?x170) ?x300)))
 (> (+ ?x432 ?x430) 0.0)))))))))
(assert
 (let ((?x168 (* (- 1.0) a1y)))
 (let ((?x292 (* ?x168 v1x)))
 (> (+ (+ (+ a1y (* (- 1.0) v1y)) (* a1x v1y)) ?x292) 0.0))))
(assert
 (let ((?x168 (* (- 1.0) a1y)))
 (let ((?x252 (* ?x168 b1x)))
 (> (+ (+ (+ a1y (* (- 1.0) b1y)) (* a1x b1y)) ?x252) 0.0))))
(assert
 (let ((?x168 (* (- 1.0) a1y)))
 (let ((?x284 (* ?x168 b2x)))
 (> (+ (+ (+ a1y (* (- 1.0) b2y)) (* a1x b2y)) ?x284) 0.0))))
(assert
 (let ((?x146 (* (- 1.0) b1x)))
 (let ((?x302 (* ?x146 v1y)))
 (> (+ (+ (+ v1y (* (- 1.0) b1y)) (* b1y v1x)) ?x302) 0.0))))
(assert
 (let ((?x248 (* (- 1.0) b2x)))
 (let ((?x313 (* ?x248 v1y)))
 (> (+ (+ (+ v1y (* (- 1.0) b2y)) (* b2y v1x)) ?x313) 0.0))))
(assert
 (let ((?x216 (* (- 1.0) b1y)))
 (let ((?x300 (* ?x216 b2x)))
 (> (+ (+ (+ b1y (* (- 1.0) b2y)) (* b1x b2y)) ?x300) 0.0))))
(assert
 (let ((?x146 (* (- 1.0) b1x)))
 (let ((?x302 (* ?x146 v1y)))
 (let ((?x168 (* (- 1.0) a1y)))
 (let ((?x292 (* ?x168 v1x)))
 (let ((?x469 (+ (+ (+ (* a1x v1y) (* a1y b1x)) (* b1y v1x)) (* (* (- 1.0) a1x) b1y))))
 (> (+ (+ ?x469 ?x292) ?x302) 0.0)))))))
(assert
 (let ((?x248 (* (- 1.0) b2x)))
 (let ((?x313 (* ?x248 v1y)))
 (let ((?x168 (* (- 1.0) a1y)))
 (let ((?x292 (* ?x168 v1x)))
 (let ((?x307 (* (- 1.0) a1x)))
 (let ((?x220 (* ?x307 b2y)))
 (let ((?x485 (+ (+ (+ (+ (* a1x v1y) (* a1y b2x)) (* b2y v1x)) ?x220) ?x292)))
 (> (+ ?x485 ?x313) 0.0)))))))))
(assert
 (let ((?x216 (* (- 1.0) b1y)))
 (let ((?x300 (* ?x216 b2x)))
 (let ((?x168 (* (- 1.0) a1y)))
 (let ((?x252 (* ?x168 b1x)))
 (let ((?x307 (* (- 1.0) a1x)))
 (let ((?x220 (* ?x307 b2y)))
 (let ((?x287 (+ (+ (+ (+ (* a1x b1y) (* a1y b2x)) (* b1x b2y)) ?x220) ?x252)))
 (> (+ ?x287 ?x300) 0.0)))))))))
(assert
 (let ((?x216 (* (- 1.0) b1y)))
(let ((?x300 (* ?x216 b2x)))
(let ((?x146 (* (- 1.0) b1x)))
(let ((?x302 (* ?x146 v1y)))
(let ((?x205 (+ (+ (+ (+ (* b1x b2y) (* b1y v1x)) (* b2x v1y)) ?x302) ?x300)))
(> (+ ?x205 (* (* (- 1.0) b2y) v1x)) 0.0)))))))
(check-sat)
